NAME :ulysses16.reord.tsp
TYPE : TSP
COMMENT : Odyssey of Ulysses (Groetschel/Padberg)
DIMENSION : 16
EDGE_WEIGHT_TYPE : GEO
DISPLAY_DATA_TYPE : COORD_DISPLAY
TOUR_SECTION
1 38.24 20.42
3 40.56 25.32
2 39.57 26.15
4 36.26 23.12
5 33.48 10.54
1 38.24 20.42
-1